NAME: PointSet_Angle_10_7
TYPE: TSP
COMMENT: Points chosen discrete uniformly at random out of ${0, \ldots, 500}^2$.
DIMENSION: 10
EDGE_WEIGHT_TYPE: EUC_2D
NODE_COORD_SECTION
1 114 306
2 320 40
3 491 228
4 59 223
5 54 424
6 329 229
7 154 6
8 379 186
9 442 428
10 401 66
EOF
